c File: flat50_3_0.col
c
c SOURCE: Joseph Culberson (joe@cs.ualberta.ca)
c DESCRIPTION: Quasi-random coloring problem
c              generated with flatness = 0
c                             probability = 0.139
c                             known coloring = 3
c                             random seed = 1082
c              Creation Date:  Tue Jun  9 12:00:43 1998
c Maximum degree = 8 Minimum degree = 2
c p edge 50 115
c cnf created by edge2cnf
p cnf 150 545
-1 -2 0
-1 -3 0
-2 -3 0
1 2 3 0
-4 -5 0
-4 -6 0
-5 -6 0
4 5 6 0
-7 -8 0
-7 -9 0
-8 -9 0
7 8 9 0
-10 -11 0
-10 -12 0
-11 -12 0
10 11 12 0
-13 -14 0
-13 -15 0
-14 -15 0
13 14 15 0
-16 -17 0
-16 -18 0
-17 -18 0
16 17 18 0
-19 -20 0
-19 -21 0
-20 -21 0
19 20 21 0
-22 -23 0
-22 -24 0
-23 -24 0
22 23 24 0
-25 -26 0
-25 -27 0
-26 -27 0
25 26 27 0
-28 -29 0
-28 -30 0
-29 -30 0
28 29 30 0
-31 -32 0
-31 -33 0
-32 -33 0
31 32 33 0
-34 -35 0
-34 -36 0
-35 -36 0
34 35 36 0
-37 -38 0
-37 -39 0
-38 -39 0
37 38 39 0
-40 -41 0
-40 -42 0
-41 -42 0
40 41 42 0
-43 -44 0
-43 -45 0
-44 -45 0
43 44 45 0
-46 -47 0
-46 -48 0
-47 -48 0
46 47 48 0
-49 -50 0
-49 -51 0
-50 -51 0
49 50 51 0
-52 -53 0
-52 -54 0
-53 -54 0
52 53 54 0
-55 -56 0
-55 -57 0
-56 -57 0
55 56 57 0
-58 -59 0
-58 -60 0
-59 -60 0
58 59 60 0
-61 -62 0
-61 -63 0
-62 -63 0
61 62 63 0
-64 -65 0
-64 -66 0
-65 -66 0
64 65 66 0
-67 -68 0
-67 -69 0
-68 -69 0
67 68 69 0
-70 -71 0
-70 -72 0
-71 -72 0
70 71 72 0
-73 -74 0
-73 -75 0
-74 -75 0
73 74 75 0
-76 -77 0
-76 -78 0
-77 -78 0
76 77 78 0
-79 -80 0
-79 -81 0
-80 -81 0
79 80 81 0
-82 -83 0
-82 -84 0
-83 -84 0
82 83 84 0
-85 -86 0
-85 -87 0
-86 -87 0
85 86 87 0
-88 -89 0
-88 -90 0
-89 -90 0
88 89 90 0
-91 -92 0
-91 -93 0
-92 -93 0
91 92 93 0
-94 -95 0
-94 -96 0
-95 -96 0
94 95 96 0
-97 -98 0
-97 -99 0
-98 -99 0
97 98 99 0
-100 -101 0
-100 -102 0
-101 -102 0
100 101 102 0
-103 -104 0
-103 -105 0
-104 -105 0
103 104 105 0
-106 -107 0
-106 -108 0
-107 -108 0
106 107 108 0
-109 -110 0
-109 -111 0
-110 -111 0
109 110 111 0
-112 -113 0
-112 -114 0
-113 -114 0
112 113 114 0
-115 -116 0
-115 -117 0
-116 -117 0
115 116 117 0
-118 -119 0
-118 -120 0
-119 -120 0
118 119 120 0
-121 -122 0
-121 -123 0
-122 -123 0
121 122 123 0
-124 -125 0
-124 -126 0
-125 -126 0
124 125 126 0
-127 -128 0
-127 -129 0
-128 -129 0
127 128 129 0
-130 -131 0
-130 -132 0
-131 -132 0
130 131 132 0
-133 -134 0
-133 -135 0
-134 -135 0
133 134 135 0
-136 -137 0
-136 -138 0
-137 -138 0
136 137 138 0
-139 -140 0
-139 -141 0
-140 -141 0
139 140 141 0
-142 -143 0
-142 -144 0
-143 -144 0
142 143 144 0
-145 -146 0
-145 -147 0
-146 -147 0
145 146 147 0
-148 -149 0
-148 -150 0
-149 -150 0
148 149 150 0
-82 -1 0
-83 -2 0
-84 -3 0
-97 -1 0
-98 -2 0
-99 -3 0
-103 -1 0
-104 -2 0
-105 -3 0
-118 -1 0
-119 -2 0
-120 -3 0
-64 -4 0
-65 -5 0
-66 -6 0
-88 -4 0
-89 -5 0
-90 -6 0
-100 -4 0
-101 -5 0
-102 -6 0
-55 -7 0
-56 -8 0
-57 -9 0
-61 -7 0
-62 -8 0
-63 -9 0
-94 -7 0
-95 -8 0
-96 -9 0
-103 -7 0
-104 -8 0
-105 -9 0
-136 -7 0
-137 -8 0
-138 -9 0
-58 -10 0
-59 -11 0
-60 -12 0
-79 -10 0
-80 -11 0
-81 -12 0
-97 -10 0
-98 -11 0
-99 -12 0
-106 -10 0
-107 -11 0
-108 -12 0
-127 -10 0
-128 -11 0
-129 -12 0
-145 -10 0
-146 -11 0
-147 -12 0
-64 -13 0
-65 -14 0
-66 -15 0
-70 -13 0
-71 -14 0
-72 -15 0
-91 -13 0
-92 -14 0
-93 -15 0
-121 -13 0
-122 -14 0
-123 -15 0
-85 -16 0
-86 -17 0
-87 -18 0
-121 -16 0
-122 -17 0
-123 -18 0
-133 -16 0
-134 -17 0
-135 -18 0
-136 -16 0
-137 -17 0
-138 -18 0
-67 -19 0
-68 -20 0
-69 -21 0
-73 -19 0
-74 -20 0
-75 -21 0
-106 -19 0
-107 -20 0
-108 -21 0
-118 -19 0
-119 -20 0
-120 -21 0
-127 -19 0
-128 -20 0
-129 -21 0
-139 -19 0
-140 -20 0
-141 -21 0
-67 -22 0
-68 -23 0
-69 -24 0
-76 -22 0
-77 -23 0
-78 -24 0
-85 -22 0
-86 -23 0
-87 -24 0
-97 -22 0
-98 -23 0
-99 -24 0
-70 -25 0
-71 -26 0
-72 -27 0
-91 -25 0
-92 -26 0
-93 -27 0
-73 -28 0
-74 -29 0
-75 -30 0
-97 -28 0
-98 -29 0
-99 -30 0
-106 -28 0
-107 -29 0
-108 -30 0
-130 -28 0
-131 -29 0
-132 -30 0
-133 -28 0
-134 -29 0
-135 -30 0
-139 -28 0
-140 -29 0
-141 -30 0
-55 -31 0
-56 -32 0
-57 -33 0
-58 -31 0
-59 -32 0
-60 -33 0
-79 -31 0
-80 -32 0
-81 -33 0
-112 -31 0
-113 -32 0
-114 -33 0
-55 -34 0
-56 -35 0
-57 -36 0
-58 -34 0
-59 -35 0
-60 -36 0
-73 -34 0
-74 -35 0
-75 -36 0
-76 -34 0
-77 -35 0
-78 -36 0
-115 -34 0
-116 -35 0
-117 -36 0
-118 -34 0
-119 -35 0
-120 -36 0
-130 -34 0
-131 -35 0
-132 -36 0
-70 -37 0
-71 -38 0
-72 -39 0
-76 -37 0
-77 -38 0
-78 -39 0
-115 -37 0
-116 -38 0
-117 -39 0
-148 -37 0
-149 -38 0
-150 -39 0
-52 -40 0
-53 -41 0
-54 -42 0
-91 -40 0
-92 -41 0
-93 -42 0
-103 -40 0
-104 -41 0
-105 -42 0
-121 -40 0
-122 -41 0
-123 -42 0
-136 -40 0
-137 -41 0
-138 -42 0
-73 -43 0
-74 -44 0
-75 -45 0
-91 -43 0
-92 -44 0
-93 -45 0
-112 -43 0
-113 -44 0
-114 -45 0
-115 -43 0
-116 -44 0
-117 -45 0
-118 -43 0
-119 -44 0
-120 -45 0
-136 -43 0
-137 -44 0
-138 -45 0
-52 -46 0
-53 -47 0
-54 -48 0
-55 -46 0
-56 -47 0
-57 -48 0
-109 -46 0
-110 -47 0
-111 -48 0
-121 -46 0
-122 -47 0
-123 -48 0
-133 -46 0
-134 -47 0
-135 -48 0
-124 -49 0
-125 -50 0
-126 -51 0
-142 -49 0
-143 -50 0
-144 -51 0
-124 -52 0
-125 -53 0
-126 -54 0
-130 -52 0
-131 -53 0
-132 -54 0
-103 -55 0
-104 -56 0
-105 -57 0
-148 -55 0
-149 -56 0
-150 -57 0
-109 -58 0
-110 -59 0
-111 -60 0
-112 -58 0
-113 -59 0
-114 -60 0
-109 -61 0
-110 -62 0
-111 -63 0
-127 -61 0
-128 -62 0
-129 -63 0
-136 -61 0
-137 -62 0
-138 -63 0
-142 -61 0
-143 -62 0
-144 -63 0
-106 -64 0
-107 -65 0
-108 -66 0
-142 -64 0
-143 -65 0
-144 -66 0
-124 -67 0
-125 -68 0
-126 -69 0
-127 -67 0
-128 -68 0
-129 -69 0
-145 -67 0
-146 -68 0
-147 -69 0
-124 -70 0
-125 -71 0
-126 -72 0
-148 -70 0
-149 -71 0
-150 -72 0
-121 -73 0
-122 -74 0
-123 -75 0
-133 -73 0
-134 -74 0
-135 -75 0
-136 -73 0
-137 -74 0
-138 -75 0
-142 -73 0
-143 -74 0
-144 -75 0
-121 -76 0
-122 -77 0
-123 -78 0
-133 -76 0
-134 -77 0
-135 -78 0
-115 -82 0
-116 -83 0
-117 -84 0
-130 -82 0
-131 -83 0
-132 -84 0
-118 -85 0
-119 -86 0
-120 -87 0
-115 -88 0
-116 -89 0
-117 -90 0
-118 -88 0
-119 -89 0
-120 -90 0
-139 -88 0
-140 -89 0
-141 -90 0
-103 -91 0
-104 -92 0
-105 -93 0
-106 -91 0
-107 -92 0
-108 -93 0
-109 -91 0
-110 -92 0
-111 -93 0
-112 -91 0
-113 -92 0
-114 -93 0
-115 -94 0
-116 -95 0
-117 -96 0
-148 -97 0
-149 -98 0
-150 -99 0
-106 -100 0
-107 -101 0
-108 -102 0
-109 -100 0
-110 -101 0
-111 -102 0
-130 -100 0
-131 -101 0
-132 -102 0
